17	4	3
13	11	11	8	6	49	13	
0	0	0	0	0	3	4	10	9	8	6	3	2	3	4
3	7	0	0	0	4	7	9	4	7	3	3	7	10	11
3	0	0	0	3	8	5	10	6	8	10	1	5
9	1	0	0	0	2	1	5	1	4	6	3	6	10	17
1	0	5	0	0	7	10	8	8	5	10	1	17
175	0	6	0	0	8	8	4	8	6	2	3	11	14	17
100	0	0	0	8	3	10	8	2	4	5	2	8	17
100	0	0	6	0	5	1	10	4	7	7	3	9	15	17
100	8	0	0	0	3	8	8	8	8	1	2	13	17
75	10	0	0	0	4	5	1	1	3	5	2	12	17
25	5	0	0	0	1	1	2	4	8	8	2	17	17
150	0	9	0	0	6	10	8	3	2	2	2	13	17
8	0	10	0	0	7	6	3	7	9	9	1	14
5	1	0	0	0	3	2	6	10	9	3	2	17	17
4	6	0	0	0	1	2	8	1	2	10	2	16	17
9	0	0	7	0	6	2	10	7	6	8	1	17
0	0	0	0	0	5	2	7	3	4	8	0
